p cnf 155 643
17 18 19 20 21 22 23 24 25 26 27 28 29 30 31 0
32 33 34 35 36 37 38 39 40 41 42 43 44 45 46 47 0
78 79 80 81 82 83 84 85 86 87 88 89 90 91 92 93 0
94 95 96 97 98 99 100 101 102 103 104 105 106 107 0
108 109 110 111 112 113 114 115 116 117 118 119 120 121 122 123 124 0
-1 -17 0
-1 -48 0
-1 -63 0
-1 -78 0
-1 -94 0
-1 -108 0
-1 -125 0
-1 -139 0
-17 -48 0
-17 -63 0
-17 -78 0
-17 -94 0
-17 -108 0
-17 -125 0
-17 -139 0
-48 -63 0
-48 -78 0
-48 -94 0
-48 -108 0
-48 -125 0
-48 -139 0
-63 -78 0
-63 -94 0
-63 -108 0
-63 -125 0
-63 -139 0
-78 -94 0
-78 -108 0
-78 -125 0
-78 -139 0
-94 -108 0
-94 -125 0
-94 -139 0
-108 -125 0
-108 -139 0
-125 -139 0
-2 -18 0
-2 -32 0
-2 -49 0
-2 -64 0
-2 -79 0
-2 -95 0
-2 -109 0
-2 -140 0
-18 -32 0
-18 -49 0
-18 -64 0
-18 -79 0
-18 -95 0
-18 -109 0
-18 -140 0
-32 -49 0
-32 -64 0
-32 -79 0
-32 -95 0
-32 -109 0
-32 -140 0
-49 -64 0
-49 -79 0
-49 -95 0
-49 -109 0
-49 -140 0
-64 -79 0
-64 -95 0
-64 -109 0
-64 -140 0
-79 -95 0
-79 -109 0
-79 -140 0
-95 -109 0
-95 -140 0
-109 -140 0
-3 -19 0
-3 -33 0
-3 -50 0
-3 -65 0
-3 -80 0
-3 -96 0
-3 -110 0
-3 -126 0
-3 -141 0
-19 -33 0
-19 -50 0
-19 -65 0
-19 -80 0
-19 -96 0
-19 -110 0
-19 -126 0
-19 -141 0
-33 -50 0
-33 -65 0
-33 -80 0
-33 -96 0
-33 -110 0
-33 -126 0
-33 -141 0
-50 -65 0
-50 -80 0
-50 -96 0
-50 -110 0
-50 -126 0
-50 -141 0
-65 -80 0
-65 -96 0
-65 -110 0
-65 -126 0
-65 -141 0
-80 -96 0
-80 -110 0
-80 -126 0
-80 -141 0
-96 -110 0
-96 -126 0
-96 -141 0
-110 -126 0
-110 -141 0
-126 -141 0
-4 -34 0
-4 -51 0
-4 -97 0
-4 -111 0
-4 -142 0
-34 -51 0
-34 -97 0
-34 -111 0
-34 -142 0
-51 -97 0
-51 -111 0
-51 -142 0
-97 -111 0
-97 -142 0
-111 -142 0
-5 -20 0
-5 -35 0
-5 -52 0
-5 -66 0
-5 -81 0
-5 -112 0
-5 -127 0
-5 -143 0
-20 -35 0
-20 -52 0
-20 -66 0
-20 -81 0
-20 -112 0
-20 -127 0
-20 -143 0
-35 -52 0
-35 -66 0
-35 -81 0
-35 -112 0
-35 -127 0
-35 -143 0
-52 -66 0
-52 -81 0
-52 -112 0
-52 -127 0
-52 -143 0
-66 -81 0
-66 -112 0
-66 -127 0
-66 -143 0
-81 -112 0
-81 -127 0
-81 -143 0
-112 -127 0
-112 -143 0
-127 -143 0
-6 -21 0
-6 -36 0
-6 -53 0
-6 -67 0
-6 -82 0
-6 -113 0
-6 -128 0
-6 -144 0
-21 -36 0
-21 -53 0
-21 -67 0
-21 -82 0
-21 -113 0
-21 -128 0
-21 -144 0
-36 -53 0
-36 -67 0
-36 -82 0
-36 -113 0
-36 -128 0
-36 -144 0
-53 -67 0
-53 -82 0
-53 -113 0
-53 -128 0
-53 -144 0
-67 -82 0
-67 -113 0
-67 -128 0
-67 -144 0
-82 -113 0
-82 -128 0
-82 -144 0
-113 -128 0
-113 -144 0
-128 -144 0
-22 -37 0
-22 -68 0
-22 -83 0
-22 -98 0
-22 -114 0
-22 -129 0
-22 -145 0
-37 -68 0
-37 -83 0
-37 -98 0
-37 -114 0
-37 -129 0
-37 -145 0
-68 -83 0
-68 -98 0
-68 -114 0
-68 -129 0
-68 -145 0
-83 -98 0
-83 -114 0
-83 -129 0
-83 -145 0
-98 -114 0
-98 -129 0
-98 -145 0
-114 -129 0
-114 -145 0
-129 -145 0
-7 -23 0
-7 -38 0
-7 -54 0
-7 -69 0
-7 -84 0
-7 -99 0
-7 -115 0
-7 -130 0
-7 -146 0
-23 -38 0
-23 -54 0
-23 -69 0
-23 -84 0
-23 -99 0
-23 -115 0
-23 -130 0
-23 -146 0
-38 -54 0
-38 -69 0
-38 -84 0
-38 -99 0
-38 -115 0
-38 -130 0
-38 -146 0
-54 -69 0
-54 -84 0
-54 -99 0
-54 -115 0
-54 -130 0
-54 -146 0
-69 -84 0
-69 -99 0
-69 -115 0
-69 -130 0
-69 -146 0
-84 -99 0
-84 -115 0
-84 -130 0
-84 -146 0
-99 -115 0
-99 -130 0
-99 -146 0
-115 -130 0
-115 -146 0
-130 -146 0
-8 -39 0
-8 -55 0
-8 -85 0
-8 -100 0
-8 -116 0
-8 -131 0
-8 -147 0
-39 -55 0
-39 -85 0
-39 -100 0
-39 -116 0
-39 -131 0
-39 -147 0
-55 -85 0
-55 -100 0
-55 -116 0
-55 -131 0
-55 -147 0
-85 -100 0
-85 -116 0
-85 -131 0
-85 -147 0
-100 -116 0
-100 -131 0
-100 -147 0
-116 -131 0
-116 -147 0
-131 -147 0
-9 -24 0
-9 -40 0
-9 -56 0
-9 -70 0
-9 -86 0
-9 -101 0
-9 -117 0
-9 -148 0
-24 -40 0
-24 -56 0
-24 -70 0
-24 -86 0
-24 -101 0
-24 -117 0
-24 -148 0
-40 -56 0
-40 -70 0
-40 -86 0
-40 -101 0
-40 -117 0
-40 -148 0
-56 -70 0
-56 -86 0
-56 -101 0
-56 -117 0
-56 -148 0
-70 -86 0
-70 -101 0
-70 -117 0
-70 -148 0
-86 -101 0
-86 -117 0
-86 -148 0
-101 -117 0
-101 -148 0
-117 -148 0
-10 -25 0
-10 -41 0
-10 -57 0
-10 -71 0
-10 -87 0
-10 -102 0
-10 -118 0
-10 -132 0
-10 -149 0
-25 -41 0
-25 -57 0
-25 -71 0
-25 -87 0
-25 -102 0
-25 -118 0
-25 -132 0
-25 -149 0
-41 -57 0
-41 -71 0
-41 -87 0
-41 -102 0
-41 -118 0
-41 -132 0
-41 -149 0
-57 -71 0
-57 -87 0
-57 -102 0
-57 -118 0
-57 -132 0
-57 -149 0
-71 -87 0
-71 -102 0
-71 -118 0
-71 -132 0
-71 -149 0
-87 -102 0
-87 -118 0
-87 -132 0
-87 -149 0
-102 -118 0
-102 -132 0
-102 -149 0
-118 -132 0
-118 -149 0
-132 -149 0
-11 -26 0
-11 -42 0
-11 -58 0
-11 -72 0
-11 -88 0
-11 -103 0
-11 -119 0
-11 -133 0
-11 -150 0
-26 -42 0
-26 -58 0
-26 -72 0
-26 -88 0
-26 -103 0
-26 -119 0
-26 -133 0
-26 -150 0
-42 -58 0
-42 -72 0
-42 -88 0
-42 -103 0
-42 -119 0
-42 -133 0
-42 -150 0
-58 -72 0
-58 -88 0
-58 -103 0
-58 -119 0
-58 -133 0
-58 -150 0
-72 -88 0
-72 -103 0
-72 -119 0
-72 -133 0
-72 -150 0
-88 -103 0
-88 -119 0
-88 -133 0
-88 -150 0
-103 -119 0
-103 -133 0
-103 -150 0
-119 -133 0
-119 -150 0
-133 -150 0
-12 -27 0
-12 -43 0
-12 -59 0
-12 -73 0
-12 -89 0
-12 -104 0
-12 -120 0
-12 -134 0
-12 -151 0
-27 -43 0
-27 -59 0
-27 -73 0
-27 -89 0
-27 -104 0
-27 -120 0
-27 -134 0
-27 -151 0
-43 -59 0
-43 -73 0
-43 -89 0
-43 -104 0
-43 -120 0
-43 -134 0
-43 -151 0
-59 -73 0
-59 -89 0
-59 -104 0
-59 -120 0
-59 -134 0
-59 -151 0
-73 -89 0
-73 -104 0
-73 -120 0
-73 -134 0
-73 -151 0
-89 -104 0
-89 -120 0
-89 -134 0
-89 -151 0
-104 -120 0
-104 -134 0
-104 -151 0
-120 -134 0
-120 -151 0
-134 -151 0
-13 -28 0
-13 -44 0
-13 -60 0
-13 -74 0
-13 -90 0
-13 -121 0
-13 -135 0
-13 -152 0
-28 -44 0
-28 -60 0
-28 -74 0
-28 -90 0
-28 -121 0
-28 -135 0
-28 -152 0
-44 -60 0
-44 -74 0
-44 -90 0
-44 -121 0
-44 -135 0
-44 -152 0
-60 -74 0
-60 -90 0
-60 -121 0
-60 -135 0
-60 -152 0
-74 -90 0
-74 -121 0
-74 -135 0
-74 -152 0
-90 -121 0
-90 -135 0
-90 -152 0
-121 -135 0
-121 -152 0
-135 -152 0
-14 -29 0
-14 -45 0
-14 -61 0
-14 -75 0
-14 -91 0
-14 -105 0
-14 -122 0
-14 -136 0
-14 -153 0
-29 -45 0
-29 -61 0
-29 -75 0
-29 -91 0
-29 -105 0
-29 -122 0
-29 -136 0
-29 -153 0
-45 -61 0
-45 -75 0
-45 -91 0
-45 -105 0
-45 -122 0
-45 -136 0
-45 -153 0
-61 -75 0
-61 -91 0
-61 -105 0
-61 -122 0
-61 -136 0
-61 -153 0
-75 -91 0
-75 -105 0
-75 -122 0
-75 -136 0
-75 -153 0
-91 -105 0
-91 -122 0
-91 -136 0
-91 -153 0
-105 -122 0
-105 -136 0
-105 -153 0
-122 -136 0
-122 -153 0
-136 -153 0
-15 -30 0
-15 -46 0
-15 -62 0
-15 -76 0
-15 -92 0
-15 -106 0
-15 -123 0
-15 -137 0
-15 -154 0
-30 -46 0
-30 -62 0
-30 -76 0
-30 -92 0
-30 -106 0
-30 -123 0
-30 -137 0
-30 -154 0
-46 -62 0
-46 -76 0
-46 -92 0
-46 -106 0
-46 -123 0
-46 -137 0
-46 -154 0
-62 -76 0
-62 -92 0
-62 -106 0
-62 -123 0
-62 -137 0
-62 -154 0
-76 -92 0
-76 -106 0
-76 -123 0
-76 -137 0
-76 -154 0
-92 -106 0
-92 -123 0
-92 -137 0
-92 -154 0
-106 -123 0
-106 -137 0
-106 -154 0
-123 -137 0
-123 -154 0
-137 -154 0
-16 -31 0
-16 -47 0
-16 -77 0
-16 -93 0
-16 -107 0
-16 -124 0
-16 -138 0
-16 -155 0
-31 -47 0
-31 -77 0
-31 -93 0
-31 -107 0
-31 -124 0
-31 -138 0
-31 -155 0
-47 -77 0
-47 -93 0
-47 -107 0
-47 -124 0
-47 -138 0
-47 -155 0
-77 -93 0
-77 -107 0
-77 -124 0
-77 -138 0
-77 -155 0
-93 -107 0
-93 -124 0
-93 -138 0
-93 -155 0
-107 -124 0
-107 -138 0
-107 -155 0
-124 -138 0
-124 -155 0
-138 -155 0
